language ESSENCE' 1.0
$ minion Nodes: 8
$ minion TotalTime: 0.001068
$ Savile Row TotalTime: 0.616
letting x_SetExplicit_tuple3_SetExplicit be [[7;int(1..1)], 
[6;int(1..1)];int(1..2)]
letting x_SetExplicit_tuple2 be [4, 4;int(1..2)]
letting x_SetExplicit_tuple1_SetOccurrence be [[false, true, true;int(2..4)], 
[false, true, true;int(2..4)];int(1..2)]
letting x_SetExplicit_tuple3_SetOccurrence be [[false, true, false, false;int(6..9)], 
[true, false, false, false;int(6..9)];int(1..2)]
